n=20;
t=24;
profit=[10 8 4 3 3 6 3 6 6 8 3 7 6 5 1 7 4 9 5 4];
length=[3 3 3 3 4 2 5 2 1 2 1 5 5 5 3 2 5 2 4 2];
min_deliver=[8 4 6 4 14 18 10 12 5 7 6 5 12 7 21 4 5 16 4 19];
max_deliver=[10 6 6 5 16 18 10 13 7 8 9 6 12 9 22 5 5 18 4 19];
surface=[3 3 4 5 1 3 1 1 1 2 1 3 3 1 1 5 5 3 2 5];
surface_capacity=20;
